width = 30;
n = 28;
dimensions = [|3, 12
|3, 16
|3, 14
|3, 18
|2, 13
|2, 5
|6, 9
|6, 3
|12, 2
|12, 14
|8, 9
|8, 3
|2, 2
|2, 14
|14, 14
|12, 13
|12, 5
|3, 5
|3, 6
|4, 17
|1, 5
|1, 6
|4, 8
|4, 24
|9, 17
|9, 11
|9, 8
|9, 24|];